
Gurobi 8.0.0 (win64, Python) logging started 07/13/18 15:04:14

Academic license - for non-commercial use only
Optimize a model with 2 rows, 2 columns and 4 nonzeros
Coefficient statistics:
  Matrix range     [3e+00, 2e+01]
  Objective range  [1e+01, 3e+01]
  Bounds range     [0e+00, 0e+00]
  RHS range        [2e+01, 4e+01]
Presolve time: 0.02s
Presolved: 2 rows, 2 columns, 4 nonzeros

Iteration    Objective       Primal Inf.    Dual Inf.      Time
       0    0.0000000e+00   7.500000e+00   0.000000e+00      0s
       2    5.4000000e+01   0.000000e+00   0.000000e+00      0s

Solved in 2 iterations and 0.03 seconds
Optimal objective  5.400000000e+01
Optimize a model with 2 rows, 2 columns and 4 nonzeros
Coefficient statistics:
  Matrix range     [3e+00, 2e+01]
  Objective range  [1e+01, 3e+01]
  Bounds range     [0e+00, 0e+00]
  RHS range        [2e+01, 4e+01]
Presolve time: 0.03s
Presolved: 2 rows, 2 columns, 4 nonzeros

Iteration    Objective       Primal Inf.    Dual Inf.      Time
       0    0.0000000e+00   7.500000e+00   0.000000e+00      0s
       2    5.4000000e+01   0.000000e+00   0.000000e+00      0s

Solved in 2 iterations and 0.04 seconds
Optimal objective  5.400000000e+01

Gurobi 7.0.2 (win64, Python) logging started 07/13/18 20:31:18

Optimize a model with 2 rows, 2 columns and 4 nonzeros
Coefficient statistics:
  Matrix range     [3e+00, 2e+01]
  Objective range  [1e+01, 3e+01]
  Bounds range     [0e+00, 0e+00]
  RHS range        [2e+01, 4e+01]
Presolve time: 0.01s
Presolved: 2 rows, 2 columns, 4 nonzeros

Iteration    Objective       Primal Inf.    Dual Inf.      Time
       0    0.0000000e+00   2.531250e+00   0.000000e+00      0s
       2    5.4000000e+01   0.000000e+00   0.000000e+00      0s

Solved in 2 iterations and 0.02 seconds
Optimal objective  5.400000000e+01

Gurobi 8.0.0 (win64, Python) logging started 07/13/18 20:33:22

Academic license - for non-commercial use only
Optimize a model with 2 rows, 2 columns and 4 nonzeros
Coefficient statistics:
  Matrix range     [3e+00, 2e+01]
  Objective range  [1e+01, 3e+01]
  Bounds range     [0e+00, 0e+00]
  RHS range        [2e+01, 4e+01]
Presolve time: 0.09s
Presolved: 2 rows, 2 columns, 4 nonzeros

Iteration    Objective       Primal Inf.    Dual Inf.      Time
       0    0.0000000e+00   7.500000e+00   0.000000e+00      0s
       2    5.4000000e+01   0.000000e+00   0.000000e+00      0s

Solved in 2 iterations and 0.19 seconds
Optimal objective  5.400000000e+01
Freed default Gurobi environment
